p cnf 14 64
-3 10 11 0
-3 -12 14 0
-2 -6 11 0
-1 -6 -10 0
2 12 14 0
8 10 -12 0
-1 -4 5 0
-4 5 -8 0
-2 -8 -13 0
-1 -4 -7 0
-1 -2 -5 0
-5 -11 14 0
5 6 -10 0
1 -10 11 0
-6 -7 -13 0
-7 -11 -14 0
-2 8 9 0
7 -8 -12 0
-1 7 -13 0
-5 -7 -11 0
-4 -10 -13 0
-10 11 -13 0
3 -10 -13 0
2 3 -6 0
5 -6 -10 0
5 -6 8 0
2 4 5 0
2 10 12 0
-1 6 -10 0
-3 8 12 0
-3 -9 -10 0
7 9 -13 0
-5 8 10 0
-1 12 -14 0
-5 -7 -8 0
-1 -2 -8 0
-2 -9 -12 0
1 -7 -14 0
-7 -10 13 0
-2 5 -7 0
-5 -6 14 0
-9 -12 -13 0
3 -6 -14 0
3 -11 12 0
3 6 -14 0
6 -12 -14 0
10 -11 -14 0
1 3 -4 0
9 -11 14 0
-4 -5 -10 0
-2 6 -8 0
3 -6 -10 0
-1 -2 8 0
-1 6 10 0
-5 10 12 0
1 4 8 0
4 -5 -7 0
2 -8 -11 0
-4 -6 9 0
7 -12 -14 0
-4 7 10 0
4 -7 -8 0
3 10 -14 0
-5 8 14 0
